%chk=ch3.chk
#P uM06L/def2SVP Opt Integral=UltraFine Freq SCF=XQC

CH3

0 2
C 0.00000000 0.00000000 0.00000000
H 0.63216000 0.63216000 0.63216000
H -0.63216000 -0.63216000 0.63216000
H -0.63216000 0.63216000 -0.63216000
