#
# Au43 + QD 19 Angstroms
#

!RKS wB97X-D3 def2-SVP RIJCOSX Def2/J LargePrint TightSCF

%method 
  FrozenCore FC_ELECTRONS 
  RangeSepEXX True
  RangeSepMu 0.05
  RangeSepScal 0.7
end

%scf 
  MaxIter 300
  SmearTemp 300
  DIISMaxEq 40
  directresetfreq 1
end 

%tddft
  TDA true
  NRoots 1000
  triplets false
end

%pal
  nprocs 8
end

* xyz 1 1
Au      0.0001  0.0018  4.2599  
Au      0.0001  -0.0019 7.1735  
Au      -1.5148 -2.0878 8.5007  
Au      -2.4284 0.7864  8.5075  
Au      0.0003  2.5959  8.5091  
Au      2.4285  0.7856  8.5078  
Au      1.5144  -2.0883 8.5006  
Au      0.0000  0.0100  10.1873 
Au      1.5708  -2.1708 5.6579  
Au      -1.5709 -2.1706 5.6579  
Au      -2.5294 0.8173  5.6618  
Au      0.0001  2.6911  5.6672  
Au      2.5296  0.8170  5.6619  
Au      2.5314  0.8204  2.8832  
Au      1.5740  -2.1672 2.8809  
Au      -1.5739 -2.1671 2.8809  
Au      -2.5313 0.8205  2.8831  
Au      -0.0001 2.6960  2.8871  
Au      0.0001  0.0057  1.4120  
Au      0.0000  0.0057  -1.4143 
Au      -2.5300 0.8198  -2.8855 
Au      -1.5730 -2.1660 -2.8834 
Au      1.5730  -2.1660 -2.8833 
Au      2.5298  0.8200  -2.8855 
Au      -0.0003 2.6946  -2.8897 
Au      -0.0001 0.0016  -4.2610 
Au      -1.5693 -2.1687 -5.6580 
Au      -2.5272 0.8164  -5.6618 
Au      -0.0003 2.6884  -5.6675 
Au      2.5270  0.8167  -5.6618 
Au      1.5696  -2.1684 -5.6578 
Au      -0.0001 -0.0019 -7.1717 
Au      1.5132  -2.0855 -8.4972 
Au      2.4257  0.7854  -8.5042 
Au      0.0000  0.0098  -10.1819        
Au      -1.5128 -2.0858 -8.4974 
Au      -2.4257 0.7852  -8.5042 
Au      0.0000  2.5929  -8.5060 
Au      -0.0002 2.6734  -0.0017 
Au      -2.5114 0.8156  -0.0016 
Au      -1.5608 -2.1463 -0.0016 
Au      1.5609  -2.1463 -0.0016 
Au      2.5114  0.8156  -0.0016 
Se      -0.0218 -0.0045 19.2566 
Cd      2.4355  1.4540  19.7911 
Se      2.5031  3.3619  17.9074 
Cd      -0.2042 3.6827  17.7800 
Se      -0.6784 2.7241  15.3169 
Cd      1.7059  1.5353  16.0297 
Se      2.7251  -0.7978 15.3435 
Cd      0.5043  -2.2713 16.0545 
Se      1.6656  -3.8605 17.9659 
Cd      3.2944  -1.6781 17.8226 
Se      4.5314  -0.4376 19.8680 
Cd      3.0382  -1.7422 21.4684 
Se      0.9083  -2.6210 22.5383 
Cd      -0.0068 -0.0070 22.2294 
Se      1.8370  2.0622  22.5327 
Cd      0.0574  3.4929  21.4126 
Se      -1.8587 4.1548  19.8584 
Cd      -2.5027 1.4015  19.8562 
Se      -2.7241 0.5031  22.5694 
Cd      -3.0415 -1.7359 21.4138 
Se      -2.6760 -3.7069 19.8301 
Cd      0.0253  -2.8653 19.8375 
Cd      -3.0848 -1.9916 17.7711 
Se      -4.1965 0.5099  17.9688 
Cd      -2.2420 0.7414  16.0657 
Se      -1.9939 -1.9040 15.3041 
*
