&CONTROL
  calculation = 'scf'
  outdir = './out/'
  prefix = 'aiida'
  pseudo_dir = './new-pseudos/'
  restart_mode = 'from_scratch'
  verbosity = 'high'
  wf_collect = .true.
/
&SYSTEM
  ecutrho =   2.4000000000d+02
  ecutwfc =   3.0000000000d+01
  ibrav = 0
  nat = 5
  ntyp = 3
/
&ELECTRONS
  conv_thr =   1.0000000000d-06
/
ATOMIC_SPECIES
Ba     137.33    Ba.upf
Ti     47.88     Ti.upf
O      15.9994   O.upf
ATOMIC_POSITIONS angstrom
Ba           0.0000000000       0.0000000000       0.0000000000
Ti           2.0000000000       2.0000000000       2.0000000000
O            2.0000000000       2.0000000000       0.0000000000
O            2.0000000000       0.0000000000       2.0000000000
O            0.0000000000       2.0000000000       2.0000000000
K_POINTS automatic
4 4 4 0 0 0
CELL_PARAMETERS angstrom
      4.0000000000       0.0000000000       0.0000000000
      0.0000000000       4.0000000000       0.0000000000
      0.0000000000       0.0000000000       4.0000000000
